n=12;
m=66;
E=[|9,7
|12,3
|12,9
|8,3
|2,12
|6,11
|5,6
|8,4
|7,5
|11,12
|4,8
|7,11
|2,11
|4,6
|9,5
|7,4
|10,3
|1,5
|3,5
|11,2
|8,9
|3,11
|10,9
|8,2
|7,9
|11,6
|10,11
|4,1
|12,1
|11,3
|9,11
|9,3
|10,7
|6,7
|7,4
|9,3
|2,5
|9,2
|7,10
|6,2
|3,5
|11,8
|7,12
|5,6
|11,9
|11,4
|12,1
|1,6
|8,12
|6,12
|1,9
|7,11
|6,12
|2,11
|8,12
|5,4
|7,12
|2,5
|11,12
|1,9
|11,6
|5,12
|3,10
|8,2
|10,3
|2,12
|];

